13
1 0 24
2 0 38
2 1 2
3 0 45
3 1 8
3 2 35
4 0 17
4 1 2
4 2 49
4 3 22
5 0 31
5 1 36
5 2 20
5 3 47
5 4 43
6 0 33
6 1 9
6 2 2
6 3 34
6 4 28
6 5 53
7 0 34
7 1 25
7 2 6
7 3 37
7 4 52
7 5 7
7 6 37
8 0 3
8 1 14
8 2 41
8 3 34
8 4 49
8 5 1
8 6 20
8 7 48
9 0 1
9 1 23
9 2 40
9 3 48
9 4 18
9 5 33
9 6 49
9 7 1
9 8 35
10 0 15
10 1 31
10 2 23
10 3 44
10 4 37
10 5 48
10 6 26
10 7 6
10 8 46
10 9 9
11 0 27
11 1 42
11 2 48
11 3 47
11 4 53
11 5 16
11 6 43
11 7 40
11 8 50
11 9 54
11 10 44
12 0 35
12 1 8
12 2 33
12 3 14
12 4 29
12 5 39
12 6 15
12 7 47
12 8 40
12 9 1
12 10 6
12 11 14
